letting numberLocations be  47
letting costs be function (
(0,0) --> 0,
(0,1) --> 48,
(0,2) --> 58,
(0,3) --> 78,
(0,4) --> 87,
(0,5) --> 44,
(0,6) --> 47,
(0,7) --> 48,
(0,8) --> 82,
(0,9) --> 71,
(0,10) --> 58,
(0,11) --> 97,
(0,12) --> 36,
(0,13) --> 89,
(0,14) --> 12,
(0,15) --> 81,
(0,16) --> 37,
(0,17) --> 16,
(0,18) --> 13,
(0,19) --> 64,
(0,20) --> 94,
(0,21) --> 79,
(0,22) --> 48,
(0,23) --> 27,
(0,24) --> 82,
(0,25) --> 73,
(0,26) --> 90,
(0,27) --> 70,
(0,28) --> 56,
(0,29) --> 74,
(0,30) --> 82,
(0,31) --> 36,
(0,32) --> 38,
(0,33) --> 72,
(0,34) --> 60,
(0,35) --> 19,
(0,36) --> 44,
(0,37) --> 63,
(0,38) --> 60,
(0,39) --> 88,
(0,40) --> 38,
(0,41) --> 36,
(0,42) --> 89,
(0,43) --> 35,
(0,44) --> 14,
(0,45) --> 54,
(0,46) --> 93,
(0,47) --> 38,
(1,0) --> 48,
(1,1) --> 0,
(1,2) --> 97,
(1,3) --> 64,
(1,4) --> 102,
(1,5) --> 10,
(1,6) --> 9,
(1,7) --> 52,
(1,8) --> 84,
(1,9) --> 85,
(1,10) --> 92,
(1,11) --> 106,
(1,12) --> 21,
(1,13) --> 107,
(1,14) --> 57,
(1,15) --> 87,
(1,16) --> 71,
(1,17) --> 60,
(1,18) --> 38,
(1,19) --> 42,
(1,20) --> 90,
(1,21) --> 102,
(1,22) --> 21,
(1,23) --> 22,
(1,24) --> 98,
(1,25) --> 44,
(1,26) --> 89,
(1,27) --> 76,
(1,28) --> 80,
(1,29) --> 95,
(1,30) --> 104,
(1,31) --> 14,
(1,32) --> 32,
(1,33) --> 102,
(1,34) --> 76,
(1,35) --> 36,
(1,36) --> 43,
(1,37) --> 49,
(1,38) --> 38,
(1,39) --> 87,
(1,40) --> 50,
(1,41) --> 83,
(1,42) --> 99,
(1,43) --> 14,
(1,44) --> 36,
(1,45) --> 66,
(1,46) --> 115,
(1,47) --> 75,
(2,0) --> 58,
(2,1) --> 97,
(2,2) --> 0,
(2,3) --> 86,
(2,4) --> 56,
(2,5) --> 98,
(2,6) --> 92,
(2,7) --> 59,
(2,8) --> 69,
(2,9) --> 48,
(2,10) --> 13,
(2,11) --> 69,
(2,12) --> 92,
(2,13) --> 51,
(2,14) --> 47,
(2,15) --> 64,
(2,16) --> 26,
(2,17) --> 42,
(2,18) --> 61,
(2,19) --> 87,
(2,20) --> 84,
(2,21) --> 39,
(2,22) --> 86,
(2,23) --> 80,
(2,24) --> 50,
(2,25) --> 98,
(2,26) --> 78,
(2,27) --> 59,
(2,28) --> 31,
(2,29) --> 39,
(2,30) --> 41,
(2,31) --> 90,
(2,32) --> 70,
(2,33) --> 24,
(2,34) --> 44,
(2,35) --> 62,
(2,36) --> 65,
(2,37) --> 79,
(2,38) --> 86,
(2,39) --> 77,
(2,40) --> 53,
(2,41) --> 31,
(2,42) --> 63,
(2,43) --> 87,
(2,44) --> 63,
(2,45) --> 50,
(2,46) --> 48,
(2,47) --> 22,
(3,0) --> 78,
(3,1) --> 64,
(3,2) --> 86,
(3,3) --> 0,
(3,4) --> 55,
(3,5) --> 73,
(3,6) --> 55,
(3,7) --> 32,
(3,8) --> 29,
(3,9) --> 44,
(3,10) --> 74,
(3,11) --> 52,
(3,12) --> 79,
(3,13) --> 62,
(3,14) --> 76,
(3,15) --> 35,
(3,16) --> 66,
(3,17) --> 76,
(3,18) --> 66,
(3,19) --> 22,
(3,20) --> 28,
(3,21) --> 64,
(3,22) --> 44,
(3,23) --> 68,
(3,24) --> 54,
(3,25) --> 26,
(3,26) --> 29,
(3,27) --> 30,
(3,28) --> 55,
(3,29) --> 59,
(3,30) --> 66,
(3,31) --> 71,
(3,32) --> 42,
(3,33) --> 75,
(3,34) --> 43,
(3,35) --> 60,
(3,36) --> 34,
(3,37) --> 16,
(3,38) --> 26,
(3,39) --> 28,
(3,40) --> 42,
(3,41) --> 94,
(3,42) --> 48,
(3,43) --> 69,
(3,44) --> 66,
(3,45) --> 36,
(3,46) --> 74,
(3,47) --> 71,
(4,0) --> 87,
(4,1) --> 102,
(4,2) --> 56,
(4,3) --> 55,
(4,4) --> 0,
(4,5) --> 108,
(4,6) --> 94,
(4,7) --> 50,
(4,8) --> 26,
(4,9) --> 17,
(4,10) --> 44,
(4,11) --> 13,
(4,12) --> 108,
(4,13) --> 8,
(4,14) --> 79,
(4,15) --> 20,
(4,16) --> 54,
(4,17) --> 76,
(4,18) --> 81,
(4,19) --> 70,
(4,20) --> 36,
(4,21) --> 17,
(4,22) --> 83,
(4,23) --> 94,
(4,24) --> 6,
(4,25) --> 78,
(4,26) --> 31,
(4,27) --> 27,
(4,28) --> 32,
(4,29) --> 16,
(4,30) --> 17,
(4,31) --> 102,
(4,32) --> 71,
(4,33) --> 33,
(4,34) --> 28,
(4,35) --> 77,
(4,36) --> 59,
(4,37) --> 59,
(4,38) --> 72,
(4,39) --> 31,
(4,40) --> 54,
(4,41) --> 80,
(4,42) --> 9,
(4,43) --> 99,
(4,44) --> 82,
(4,45) --> 37,
(4,46) --> 20,
(4,47) --> 56,
(5,0) --> 44,
(5,1) --> 10,
(5,2) --> 98,
(5,3) --> 73,
(5,4) --> 108,
(5,5) --> 0,
(5,6) --> 18,
(5,7) --> 58,
(5,8) --> 92,
(5,9) --> 91,
(5,10) --> 93,
(5,11) --> 113,
(5,12) --> 11,
(5,13) --> 112,
(5,14) --> 54,
(5,15) --> 93,
(5,16) --> 72,
(5,17) --> 58,
(5,18) --> 36,
(5,19) --> 51,
(5,20) --> 98,
(5,21) --> 106,
(5,22) --> 29,
(5,23) --> 18,
(5,24) --> 103,
(5,25) --> 54,
(5,26) --> 97,
(5,27) --> 83,
(5,28) --> 84,
(5,29) --> 100,
(5,30) --> 108,
(5,31) --> 8,
(5,32) --> 37,
(5,33) --> 105,
(5,34) --> 81,
(5,35) --> 36,
(5,36) --> 48,
(5,37) --> 58,
(5,38) --> 47,
(5,39) --> 95,
(5,40) --> 54,
(5,41) --> 80,
(5,42) --> 105,
(5,43) --> 10,
(5,44) --> 35,
(5,45) --> 71,
(5,46) --> 120,
(5,47) --> 75,
(6,0) --> 47,
(6,1) --> 9,
(6,2) --> 92,
(6,3) --> 55,
(6,4) --> 94,
(6,5) --> 18,
(6,6) --> 0,
(6,7) --> 44,
(6,8) --> 76,
(6,9) --> 77,
(6,10) --> 86,
(6,11) --> 98,
(6,12) --> 27,
(6,13) --> 99,
(6,14) --> 54,
(6,15) --> 78,
(6,16) --> 66,
(6,17) --> 58,
(6,18) --> 36,
(6,19) --> 33,
(6,20) --> 81,
(6,21) --> 94,
(6,22) --> 12,
(6,23) --> 23,
(6,24) --> 90,
(6,25) --> 36,
(6,26) --> 80,
(6,27) --> 68,
(6,28) --> 74,
(6,29) --> 88,
(6,30) --> 97,
(6,31) --> 19,
(6,32) --> 24,
(6,33) --> 96,
(6,34) --> 68,
(6,35) --> 33,
(6,36) --> 34,
(6,37) --> 40,
(6,38) --> 29,
(6,39) --> 78,
(6,40) --> 43,
(6,41) --> 81,
(6,42) --> 91,
(6,43) --> 18,
(6,44) --> 34,
(6,45) --> 58,
(6,46) --> 108,
(6,47) --> 70,
(7,0) --> 48,
(7,1) --> 52,
(7,2) --> 59,
(7,3) --> 32,
(7,4) --> 50,
(7,5) --> 58,
(7,6) --> 44,
(7,7) --> 0,
(7,8) --> 35,
(7,9) --> 33,
(7,10) --> 49,
(7,11) --> 55,
(7,12) --> 60,
(7,13) --> 54,
(7,14) --> 45,
(7,15) --> 36,
(7,16) --> 36,
(7,17) --> 45,
(7,18) --> 38,
(7,19) --> 29,
(7,20) --> 46,
(7,21) --> 50,
(7,22) --> 34,
(7,23) --> 47,
(7,24) --> 46,
(7,25) --> 39,
(7,26) --> 42,
(7,27) --> 25,
(7,28) --> 32,
(7,29) --> 44,
(7,30) --> 53,
(7,31) --> 53,
(7,32) --> 21,
(7,33) --> 54,
(7,34) --> 24,
(7,35) --> 32,
(7,36) --> 10,
(7,37) --> 21,
(7,38) --> 28,
(7,39) --> 40,
(7,40) --> 11,
(7,41) --> 62,
(7,42) --> 47,
(7,43) --> 50,
(7,44) --> 38,
(7,45) --> 13,
(7,46) --> 64,
(7,47) --> 40,
(8,0) --> 82,
(8,1) --> 84,
(8,2) --> 69,
(8,3) --> 29,
(8,4) --> 26,
(8,5) --> 92,
(8,6) --> 76,
(8,7) --> 35,
(8,8) --> 0,
(8,9) --> 21,
(8,10) --> 57,
(8,11) --> 23,
(8,12) --> 95,
(8,13) --> 34,
(8,14) --> 76,
(8,15) --> 6,
(8,16) --> 58,
(8,17) --> 75,
(8,18) --> 73,
(8,19) --> 47,
(8,20) --> 14,
(8,21) --> 39,
(8,22) --> 64,
(8,23) --> 82,
(8,24) --> 27,
(8,25) --> 54,
(8,26) --> 9,
(8,27) --> 12,
(8,28) --> 39,
(8,29) --> 34,
(8,30) --> 40,
(8,31) --> 88,
(8,32) --> 55,
(8,33) --> 52,
(8,34) --> 27,
(8,35) --> 67,
(8,36) --> 44,
(8,37) --> 37,
(8,38) --> 50,
(8,39) --> 7,
(8,40) --> 44,
(8,41) --> 86,
(8,42) --> 18,
(8,43) --> 85,
(8,44) --> 73,
(8,45) --> 28,
(8,46) --> 46,
(8,47) --> 61,
(9,0) --> 71,
(9,1) --> 85,
(9,2) --> 48,
(9,3) --> 44,
(9,4) --> 17,
(9,5) --> 91,
(9,6) --> 77,
(9,7) --> 33,
(9,8) --> 21,
(9,9) --> 0,
(9,10) --> 36,
(9,11) --> 26,
(9,12) --> 91,
(9,13) --> 22,
(9,14) --> 63,
(9,15) --> 16,
(9,16) --> 40,
(9,17) --> 60,
(9,18) --> 64,
(9,19) --> 56,
(9,20) --> 35,
(9,21) --> 20,
(9,22) --> 67,
(9,23) --> 77,
(9,24) --> 13,
(9,25) --> 65,
(9,26) --> 30,
(9,27) --> 14,
(9,28) --> 19,
(9,29) --> 14,
(9,30) --> 22,
(9,31) --> 85,
(9,32) --> 54,
(9,33) --> 31,
(9,34) --> 11,
(9,35) --> 60,
(9,36) --> 43,
(9,37) --> 45,
(9,38) --> 57,
(9,39) --> 28,
(9,40) --> 37,
(9,41) --> 68,
(9,42) --> 18,
(9,43) --> 82,
(9,44) --> 65,
(9,45) --> 20,
(9,46) --> 32,
(9,47) --> 43,
(10,0) --> 58,
(10,1) --> 92,
(10,2) --> 13,
(10,3) --> 74,
(10,4) --> 44,
(10,5) --> 93,
(10,6) --> 86,
(10,7) --> 49,
(10,8) --> 57,
(10,9) --> 36,
(10,10) --> 0,
(10,11) --> 57,
(10,12) --> 90,
(10,13) --> 40,
(10,14) --> 47,
(10,15) --> 51,
(10,16) --> 22,
(10,17) --> 43,
(10,18) --> 58,
(10,19) --> 77,
(10,20) --> 71,
(10,21) --> 28,
(10,22) --> 78,
(10,23) --> 76,
(10,24) --> 38,
(10,25) --> 88,
(10,26) --> 65,
(10,27) --> 47,
(10,28) --> 19,
(10,29) --> 27,
(10,30) --> 30,
(10,31) --> 86,
(10,32) --> 63,
(10,33) --> 15,
(10,34) --> 32,
(10,35) --> 57,
(10,36) --> 56,
(10,37) --> 68,
(10,38) --> 77,
(10,39) --> 64,
(10,40) --> 44,
(10,41) --> 38,
(10,42) --> 50,
(10,43) --> 83,
(10,44) --> 60,
(10,45) --> 39,
(10,46) --> 39,
(10,47) --> 20,
(11,0) --> 97,
(11,1) --> 106,
(11,2) --> 69,
(11,3) --> 52,
(11,4) --> 13,
(11,5) --> 113,
(11,6) --> 98,
(11,7) --> 55,
(11,8) --> 23,
(11,9) --> 26,
(11,10) --> 57,
(11,11) --> 0,
(11,12) --> 115,
(11,13) --> 20,
(11,14) --> 89,
(11,15) --> 20,
(11,16) --> 66,
(11,17) --> 87,
(11,18) --> 90,
(11,19) --> 70,
(11,20) --> 28,
(11,21) --> 31,
(11,22) --> 86,
(11,23) --> 101,
(11,24) --> 19,
(11,25) --> 77,
(11,26) --> 24,
(11,27) --> 30,
(11,28) --> 44,
(11,29) --> 30,
(11,30) --> 30,
(11,31) --> 108,
(11,32) --> 76,
(11,33) --> 47,
(11,34) --> 37,
(11,35) --> 85,
(11,36) --> 64,
(11,37) --> 60,
(11,38) --> 73,
(11,39) --> 25,
(11,40) --> 62,
(11,41) --> 93,
(11,42) --> 8,
(11,43) --> 105,
(11,44) --> 91,
(11,45) --> 44,
(11,46) --> 31,
(11,47) --> 68,
(12,0) --> 36,
(12,1) --> 21,
(12,2) --> 92,
(12,3) --> 79,
(12,4) --> 108,
(12,5) --> 11,
(12,6) --> 27,
(12,7) --> 60,
(12,8) --> 95,
(12,9) --> 91,
(12,10) --> 90,
(12,11) --> 115,
(12,12) --> 0,
(12,13) --> 112,
(12,14) --> 47,
(12,15) --> 96,
(12,16) --> 68,
(12,17) --> 51,
(12,18) --> 31,
(12,19) --> 58,
(12,20) --> 103,
(12,21) --> 105,
(12,22) --> 36,
(12,23) --> 14,
(12,24) --> 104,
(12,25) --> 63,
(12,26) --> 101,
(12,27) --> 85,
(12,28) --> 82,
(12,29) --> 99,
(12,30) --> 108,
(12,31) --> 8,
(12,32) --> 39,
(12,33) --> 102,
(12,34) --> 81,
(12,35) --> 33,
(12,36) --> 51,
(12,37) --> 63,
(12,38) --> 54,
(12,39) --> 99,
(12,40) --> 54,
(12,41) --> 72,
(12,42) --> 107,
(12,43) --> 10,
(12,44) --> 30,
(12,45) --> 72,
(12,46) --> 119,
(12,47) --> 71,
(13,0) --> 89,
(13,1) --> 107,
(13,2) --> 51,
(13,3) --> 62,
(13,4) --> 8,
(13,5) --> 112,
(13,6) --> 99,
(13,7) --> 54,
(13,8) --> 34,
(13,9) --> 22,
(13,10) --> 40,
(13,11) --> 20,
(13,12) --> 112,
(13,13) --> 0,
(13,14) --> 79,
(13,15) --> 28,
(13,16) --> 54,
(13,17) --> 76,
(13,18) --> 84,
(13,19) --> 77,
(13,20) --> 44,
(13,21) --> 12,
(13,22) --> 88,
(13,23) --> 98,
(13,24) --> 9,
(13,25) --> 85,
(13,26) --> 39,
(13,27) --> 34,
(13,28) --> 32,
(13,29) --> 15,
(13,30) --> 11,
(13,31) --> 106,
(13,32) --> 75,
(13,33) --> 28,
(13,34) --> 31,
(13,35) --> 80,
(13,36) --> 64,
(13,37) --> 66,
(13,38) --> 78,
(13,39) --> 39,
(13,40) --> 58,
(13,41) --> 78,
(13,42) --> 17,
(13,43) --> 103,
(13,44) --> 85,
(13,45) --> 41,
(13,46) --> 12,
(13,47) --> 55,
(14,0) --> 12,
(14,1) --> 57,
(14,2) --> 47,
(14,3) --> 76,
(14,4) --> 79,
(14,5) --> 54,
(14,6) --> 54,
(14,7) --> 45,
(14,8) --> 76,
(14,9) --> 63,
(14,10) --> 47,
(14,11) --> 89,
(14,12) --> 47,
(14,13) --> 79,
(14,14) --> 0,
(14,15) --> 74,
(14,16) --> 26,
(14,17) --> 4,
(14,18) --> 18,
(14,19) --> 65,
(14,20) --> 89,
(14,21) --> 69,
(14,22) --> 53,
(14,23) --> 36,
(14,24) --> 73,
(14,25) --> 75,
(14,26) --> 85,
(14,27) --> 64,
(14,28) --> 47,
(14,29) --> 65,
(14,30) --> 72,
(14,31) --> 46,
(14,32) --> 40,
(14,33) --> 61,
(14,34) --> 52,
(14,35) --> 22,
(14,36) --> 43,
(14,37) --> 62,
(14,38) --> 62,
(14,39) --> 83,
(14,40) --> 34,
(14,41) --> 26,
(14,42) --> 81,
(14,43) --> 44,
(14,44) --> 20,
(14,45) --> 48,
(14,46) --> 82,
(14,47) --> 27,
(15,0) --> 81,
(15,1) --> 87,
(15,2) --> 64,
(15,3) --> 35,
(15,4) --> 20,
(15,5) --> 93,
(15,6) --> 78,
(15,7) --> 36,
(15,8) --> 6,
(15,9) --> 16,
(15,10) --> 51,
(15,11) --> 20,
(15,12) --> 96,
(15,13) --> 28,
(15,14) --> 74,
(15,15) --> 0,
(15,16) --> 54,
(15,17) --> 72,
(15,18) --> 72,
(15,19) --> 51,
(15,20) --> 20,
(15,21) --> 32,
(15,22) --> 66,
(15,23) --> 82,
(15,24) --> 20,
(15,25) --> 58,
(15,26) --> 14,
(15,27) --> 11,
(15,28) --> 34,
(15,29) --> 28,
(15,30) --> 34,
(15,31) --> 89,
(15,32) --> 57,
(15,33) --> 46,
(15,34) --> 23,
(15,35) --> 67,
(15,36) --> 45,
(15,37) --> 40,
(15,38) --> 53,
(15,39) --> 13,
(15,40) --> 44,
(15,41) --> 82,
(15,42) --> 13,
(15,43) --> 86,
(15,44) --> 73,
(15,45) --> 26,
(15,46) --> 40,
(15,47) --> 57,
(16,0) --> 37,
(16,1) --> 71,
(16,2) --> 26,
(16,3) --> 66,
(16,4) --> 54,
(16,5) --> 72,
(16,6) --> 66,
(16,7) --> 36,
(16,8) --> 58,
(16,9) --> 40,
(16,10) --> 22,
(16,11) --> 66,
(16,12) --> 68,
(16,13) --> 54,
(16,14) --> 26,
(16,15) --> 54,
(16,16) --> 0,
(16,17) --> 22,
(16,18) --> 37,
(16,19) --> 64,
(16,20) --> 72,
(16,21) --> 43,
(16,22) --> 60,
(16,23) --> 55,
(16,24) --> 48,
(16,25) --> 74,
(16,26) --> 66,
(16,27) --> 46,
(16,28) --> 22,
(16,29) --> 39,
(16,30) --> 46,
(16,31) --> 65,
(16,32) --> 44,
(16,33) --> 35,
(16,34) --> 31,
(16,35) --> 36,
(16,36) --> 40,
(16,37) --> 57,
(16,38) --> 62,
(16,39) --> 65,
(16,40) --> 28,
(16,41) --> 29,
(16,42) --> 58,
(16,43) --> 62,
(16,44) --> 38,
(16,45) --> 32,
(16,46) --> 56,
(16,47) --> 4,
(17,0) --> 16,
(17,1) --> 60,
(17,2) --> 42,
(17,3) --> 76,
(17,4) --> 76,
(17,5) --> 58,
(17,6) --> 58,
(17,7) --> 45,
(17,8) --> 75,
(17,9) --> 60,
(17,10) --> 43,
(17,11) --> 87,
(17,12) --> 51,
(17,13) --> 76,
(17,14) --> 4,
(17,15) --> 72,
(17,16) --> 22,
(17,17) --> 0,
(17,18) --> 22,
(17,19) --> 66,
(17,20) --> 88,
(17,21) --> 65,
(17,22) --> 55,
(17,23) --> 40,
(17,24) --> 70,
(17,25) --> 77,
(17,26) --> 83,
(17,27) --> 63,
(17,28) --> 44,
(17,29) --> 61,
(17,30) --> 68,
(17,31) --> 50,
(17,32) --> 42,
(17,33) --> 57,
(17,34) --> 50,
(17,35) --> 25,
(17,36) --> 44,
(17,37) --> 63,
(17,38) --> 64,
(17,39) --> 81,
(17,40) --> 34,
(17,41) --> 23,
(17,42) --> 78,
(17,43) --> 48,
(17,44) --> 24,
(17,45) --> 47,
(17,46) --> 79,
(17,47) --> 23,
(18,0) --> 13,
(18,1) --> 38,
(18,2) --> 61,
(18,3) --> 66,
(18,4) --> 81,
(18,5) --> 36,
(18,6) --> 36,
(18,7) --> 38,
(18,8) --> 73,
(18,9) --> 64,
(18,10) --> 58,
(18,11) --> 90,
(18,12) --> 31,
(18,13) --> 84,
(18,14) --> 18,
(18,15) --> 72,
(18,16) --> 37,
(18,17) --> 22,
(18,18) --> 0,
(18,19) --> 51,
(18,20) --> 84,
(18,21) --> 75,
(18,22) --> 36,
(18,23) --> 18,
(18,24) --> 76,
(18,25) --> 60,
(18,26) --> 80,
(18,27) --> 62,
(18,28) --> 52,
(18,29) --> 70,
(18,30) --> 78,
(18,31) --> 29,
(18,32) --> 25,
(18,33) --> 71,
(18,34) --> 54,
(18,35) --> 6,
(18,36) --> 33,
(18,37) --> 51,
(18,38) --> 48,
(18,39) --> 78,
(18,40) --> 29,
(18,41) --> 45,
(18,42) --> 82,
(18,43) --> 26,
(18,44) --> 2,
(18,45) --> 46,
(18,46) --> 89,
(18,47) --> 39,
(19,0) --> 64,
(19,1) --> 42,
(19,2) --> 87,
(19,3) --> 22,
(19,4) --> 70,
(19,5) --> 51,
(19,6) --> 33,
(19,7) --> 29,
(19,8) --> 47,
(19,9) --> 56,
(19,10) --> 77,
(19,11) --> 70,
(19,12) --> 58,
(19,13) --> 77,
(19,14) --> 65,
(19,15) --> 51,
(19,16) --> 64,
(19,17) --> 66,
(19,18) --> 51,
(19,19) --> 0,
(19,20) --> 50,
(19,21) --> 75,
(19,22) --> 22,
(19,23) --> 49,
(19,24) --> 68,
(19,25) --> 11,
(19,26) --> 50,
(19,27) --> 43,
(19,28) --> 60,
(19,29) --> 69,
(19,30) --> 78,
(19,31) --> 50,
(19,32) --> 26,
(19,33) --> 82,
(19,34) --> 50,
(19,35) --> 45,
(19,36) --> 23,
(19,37) --> 11,
(19,38) --> 4,
(19,39) --> 48,
(19,40) --> 36,
(19,41) --> 87,
(19,42) --> 64,
(19,43) --> 48,
(19,44) --> 50,
(19,45) --> 40,
(19,46) --> 87,
(19,47) --> 68,
(20,0) --> 94,
(20,1) --> 90,
(20,2) --> 84,
(20,3) --> 28,
(20,4) --> 36,
(20,5) --> 98,
(20,6) --> 81,
(20,7) --> 46,
(20,8) --> 14,
(20,9) --> 35,
(20,10) --> 71,
(20,11) --> 28,
(20,12) --> 103,
(20,13) --> 44,
(20,14) --> 89,
(20,15) --> 20,
(20,16) --> 72,
(20,17) --> 88,
(20,18) --> 84,
(20,19) --> 50,
(20,20) --> 0,
(20,21) --> 51,
(20,22) --> 70,
(20,23) --> 91,
(20,24) --> 38,
(20,25) --> 54,
(20,26) --> 6,
(20,27) --> 26,
(20,28) --> 53,
(20,29) --> 47,
(20,30) --> 52,
(20,31) --> 96,
(20,32) --> 64,
(20,33) --> 66,
(20,34) --> 41,
(20,35) --> 78,
(20,36) --> 53,
(20,37) --> 41,
(20,38) --> 53,
(20,39) --> 7,
(20,40) --> 56,
(20,41) --> 100,
(20,42) --> 27,
(20,43) --> 93,
(20,44) --> 84,
(20,45) --> 41,
(20,46) --> 56,
(20,47) --> 75,
(21,0) --> 79,
(21,1) --> 102,
(21,2) --> 39,
(21,3) --> 64,
(21,4) --> 17,
(21,5) --> 106,
(21,6) --> 94,
(21,7) --> 50,
(21,8) --> 39,
(21,9) --> 20,
(21,10) --> 28,
(21,11) --> 31,
(21,12) --> 105,
(21,13) --> 12,
(21,14) --> 69,
(21,15) --> 32,
(21,16) --> 43,
(21,17) --> 65,
(21,18) --> 75,
(21,19) --> 75,
(21,20) --> 51,
(21,21) --> 0,
(21,22) --> 84,
(21,23) --> 91,
(21,24) --> 13,
(21,25) --> 85,
(21,26) --> 46,
(21,27) --> 34,
(21,28) --> 23,
(21,29) --> 6,
(21,30) --> 3,
(21,31) --> 99,
(21,32) --> 70,
(21,33) --> 16,
(21,34) --> 26,
(21,35) --> 72,
(21,36) --> 60,
(21,37) --> 65,
(21,38) --> 76,
(21,39) --> 45,
(21,40) --> 52,
(21,41) --> 66,
(21,42) --> 25,
(21,43) --> 97,
(21,44) --> 77,
(21,45) --> 37,
(21,46) --> 14,
(21,47) --> 44,
(22,0) --> 48,
(22,1) --> 21,
(22,2) --> 86,
(22,3) --> 44,
(22,4) --> 83,
(22,5) --> 29,
(22,6) --> 12,
(22,7) --> 34,
(22,8) --> 64,
(22,9) --> 67,
(22,10) --> 78,
(22,11) --> 86,
(22,12) --> 36,
(22,13) --> 88,
(22,14) --> 53,
(22,15) --> 66,
(22,16) --> 60,
(22,17) --> 55,
(22,18) --> 36,
(22,19) --> 22,
(22,20) --> 70,
(22,21) --> 84,
(22,22) --> 0,
(22,23) --> 28,
(22,24) --> 79,
(22,25) --> 27,
(22,26) --> 68,
(22,27) --> 57,
(22,28) --> 65,
(22,29) --> 78,
(22,30) --> 87,
(22,31) --> 28,
(22,32) --> 16,
(22,33) --> 87,
(22,34) --> 58,
(22,35) --> 31,
(22,36) --> 24,
(22,37) --> 29,
(22,38) --> 18,
(22,39) --> 67,
(22,40) --> 35,
(22,41) --> 78,
(22,42) --> 79,
(22,43) --> 26,
(22,44) --> 34,
(22,45) --> 47,
(22,46) --> 98,
(22,47) --> 64,
(23,0) --> 27,
(23,1) --> 22,
(23,2) --> 80,
(23,3) --> 68,
(23,4) --> 94,
(23,5) --> 18,
(23,6) --> 23,
(23,7) --> 47,
(23,8) --> 82,
(23,9) --> 77,
(23,10) --> 76,
(23,11) --> 101,
(23,12) --> 14,
(23,13) --> 98,
(23,14) --> 36,
(23,15) --> 82,
(23,16) --> 55,
(23,17) --> 40,
(23,18) --> 18,
(23,19) --> 49,
(23,20) --> 91,
(23,21) --> 91,
(23,22) --> 28,
(23,23) --> 0,
(23,24) --> 90,
(23,25) --> 55,
(23,26) --> 88,
(23,27) --> 72,
(23,28) --> 68,
(23,29) --> 85,
(23,30) --> 93,
(23,31) --> 10,
(23,32) --> 27,
(23,33) --> 88,
(23,34) --> 67,
(23,35) --> 19,
(23,36) --> 38,
(23,37) --> 52,
(23,38) --> 45,
(23,39) --> 86,
(23,40) --> 40,
(23,41) --> 62,
(23,42) --> 93,
(23,43) --> 8,
(23,44) --> 16,
(23,45) --> 58,
(23,46) --> 105,
(23,47) --> 58,
(24,0) --> 82,
(24,1) --> 98,
(24,2) --> 50,
(24,3) --> 54,
(24,4) --> 6,
(24,5) --> 103,
(24,6) --> 90,
(24,7) --> 46,
(24,8) --> 27,
(24,9) --> 13,
(24,10) --> 38,
(24,11) --> 19,
(24,12) --> 104,
(24,13) --> 9,
(24,14) --> 73,
(24,15) --> 20,
(24,16) --> 48,
(24,17) --> 70,
(24,18) --> 76,
(24,19) --> 68,
(24,20) --> 38,
(24,21) --> 13,
(24,22) --> 79,
(24,23) --> 90,
(24,24) --> 0,
(24,25) --> 76,
(24,26) --> 33,
(24,27) --> 25,
(24,28) --> 26,
(24,29) --> 11,
(24,30) --> 13,
(24,31) --> 98,
(24,32) --> 67,
(24,33) --> 28,
(24,34) --> 23,
(24,35) --> 72,
(24,36) --> 56,
(24,37) --> 57,
(24,38) --> 69,
(24,39) --> 32,
(24,40) --> 50,
(24,41) --> 74,
(24,42) --> 13,
(24,43) --> 95,
(24,44) --> 77,
(24,45) --> 33,
(24,46) --> 20,
(24,47) --> 50,
(25,0) --> 73,
(25,1) --> 44,
(25,2) --> 98,
(25,3) --> 26,
(25,4) --> 78,
(25,5) --> 54,
(25,6) --> 36,
(25,7) --> 39,
(25,8) --> 54,
(25,9) --> 65,
(25,10) --> 88,
(25,11) --> 77,
(25,12) --> 63,
(25,13) --> 85,
(25,14) --> 75,
(25,15) --> 58,
(25,16) --> 74,
(25,17) --> 77,
(25,18) --> 60,
(25,19) --> 11,
(25,20) --> 54,
(25,21) --> 85,
(25,22) --> 27,
(25,23) --> 55,
(25,24) --> 76,
(25,25) --> 0,
(25,26) --> 54,
(25,27) --> 51,
(25,28) --> 70,
(25,29) --> 78,
(25,30) --> 87,
(25,31) --> 55,
(25,32) --> 35,
(25,33) --> 92,
(25,34) --> 60,
(25,35) --> 54,
(25,36) --> 34,
(25,37) --> 20,
(25,38) --> 13,
(25,39) --> 53,
(25,40) --> 47,
(25,41) --> 98,
(25,42) --> 72,
(25,43) --> 53,
(25,44) --> 59,
(25,45) --> 50,
(25,46) --> 96,
(25,47) --> 79,
(26,0) --> 90,
(26,1) --> 89,
(26,2) --> 78,
(26,3) --> 29,
(26,4) --> 31,
(26,5) --> 97,
(26,6) --> 80,
(26,7) --> 42,
(26,8) --> 9,
(26,9) --> 30,
(26,10) --> 65,
(26,11) --> 24,
(26,12) --> 101,
(26,13) --> 39,
(26,14) --> 85,
(26,15) --> 14,
(26,16) --> 66,
(26,17) --> 83,
(26,18) --> 80,
(26,19) --> 50,
(26,20) --> 6,
(26,21) --> 46,
(26,22) --> 68,
(26,23) --> 88,
(26,24) --> 33,
(26,25) --> 54,
(26,26) --> 0,
(26,27) --> 21,
(26,28) --> 48,
(26,29) --> 42,
(26,30) --> 47,
(26,31) --> 93,
(26,32) --> 61,
(26,33) --> 60,
(26,34) --> 36,
(26,35) --> 75,
(26,36) --> 50,
(26,37) --> 40,
(26,38) --> 52,
(26,39) --> 2,
(26,40) --> 52,
(26,41) --> 95,
(26,42) --> 22,
(26,43) --> 91,
(26,44) --> 81,
(26,45) --> 36,
(26,46) --> 51,
(26,47) --> 70,
(27,0) --> 70,
(27,1) --> 76,
(27,2) --> 59,
(27,3) --> 30,
(27,4) --> 27,
(27,5) --> 83,
(27,6) --> 68,
(27,7) --> 25,
(27,8) --> 12,
(27,9) --> 14,
(27,10) --> 47,
(27,11) --> 30,
(27,12) --> 85,
(27,13) --> 34,
(27,14) --> 64,
(27,15) --> 11,
(27,16) --> 46,
(27,17) --> 63,
(27,18) --> 62,
(27,19) --> 43,
(27,20) --> 26,
(27,21) --> 34,
(27,22) --> 57,
(27,23) --> 72,
(27,24) --> 25,
(27,25) --> 51,
(27,26) --> 21,
(27,27) --> 0,
(27,28) --> 28,
(27,29) --> 28,
(27,30) --> 36,
(27,31) --> 78,
(27,32) --> 46,
(27,33) --> 45,
(27,34) --> 16,
(27,35) --> 56,
(27,36) --> 34,
(27,37) --> 32,
(27,38) --> 45,
(27,39) --> 19,
(27,40) --> 33,
(27,41) --> 74,
(27,42) --> 23,
(27,43) --> 75,
(27,44) --> 62,
(27,45) --> 16,
(27,46) --> 45,
(27,47) --> 49,
(28,0) --> 56,
(28,1) --> 80,
(28,2) --> 31,
(28,3) --> 55,
(28,4) --> 32,
(28,5) --> 84,
(28,6) --> 74,
(28,7) --> 32,
(28,8) --> 39,
(28,9) --> 19,
(28,10) --> 19,
(28,11) --> 44,
(28,12) --> 82,
(28,13) --> 32,
(28,14) --> 47,
(28,15) --> 34,
(28,16) --> 22,
(28,17) --> 44,
(28,18) --> 52,
(28,19) --> 60,
(28,20) --> 53,
(28,21) --> 23,
(28,22) --> 65,
(28,23) --> 68,
(28,24) --> 26,
(28,25) --> 70,
(28,26) --> 48,
(28,27) --> 28,
(28,28) --> 0,
(28,29) --> 18,
(28,30) --> 26,
(28,31) --> 77,
(28,32) --> 49,
(28,33) --> 22,
(28,34) --> 13,
(28,35) --> 50,
(28,36) --> 41,
(28,37) --> 51,
(28,38) --> 60,
(28,39) --> 46,
(28,40) --> 30,
(28,41) --> 49,
(28,42) --> 36,
(28,43) --> 74,
(28,44) --> 54,
(28,45) --> 20,
(28,46) --> 37,
(28,47) --> 24,
(29,0) --> 74,
(29,1) --> 95,
(29,2) --> 39,
(29,3) --> 59,
(29,4) --> 16,
(29,5) --> 100,
(29,6) --> 88,
(29,7) --> 44,
(29,8) --> 34,
(29,9) --> 14,
(29,10) --> 27,
(29,11) --> 30,
(29,12) --> 99,
(29,13) --> 15,
(29,14) --> 65,
(29,15) --> 28,
(29,16) --> 39,
(29,17) --> 61,
(29,18) --> 70,
(29,19) --> 69,
(29,20) --> 47,
(29,21) --> 6,
(29,22) --> 78,
(29,23) --> 85,
(29,24) --> 11,
(29,25) --> 78,
(29,26) --> 42,
(29,27) --> 28,
(29,28) --> 18,
(29,29) --> 0,
(29,30) --> 9,
(29,31) --> 94,
(29,32) --> 64,
(29,33) --> 18,
(29,34) --> 20,
(29,35) --> 67,
(29,36) --> 54,
(29,37) --> 59,
(29,38) --> 70,
(29,39) --> 40,
(29,40) --> 46,
(29,41) --> 64,
(29,42) --> 23,
(29,43) --> 91,
(29,44) --> 71,
(29,45) --> 30,
(29,46) --> 20,
(29,47) --> 40,
(30,0) --> 82,
(30,1) --> 104,
(30,2) --> 41,
(30,3) --> 66,
(30,4) --> 17,
(30,5) --> 108,
(30,6) --> 97,
(30,7) --> 53,
(30,8) --> 40,
(30,9) --> 22,
(30,10) --> 30,
(30,11) --> 30,
(30,12) --> 108,
(30,13) --> 11,
(30,14) --> 72,
(30,15) --> 34,
(30,16) --> 46,
(30,17) --> 68,
(30,18) --> 78,
(30,19) --> 78,
(30,20) --> 52,
(30,21) --> 3,
(30,22) --> 87,
(30,23) --> 93,
(30,24) --> 13,
(30,25) --> 87,
(30,26) --> 47,
(30,27) --> 36,
(30,28) --> 26,
(30,29) --> 9,
(30,30) --> 0,
(30,31) --> 102,
(30,32) --> 73,
(30,33) --> 17,
(30,34) --> 29,
(30,35) --> 75,
(30,36) --> 63,
(30,37) --> 67,
(30,38) --> 79,
(30,39) --> 46,
(30,40) --> 54,
(30,41) --> 68,
(30,42) --> 26,
(30,43) --> 99,
(30,44) --> 79,
(30,45) --> 39,
(30,46) --> 11,
(30,47) --> 46,
(31,0) --> 36,
(31,1) --> 14,
(31,2) --> 90,
(31,3) --> 71,
(31,4) --> 102,
(31,5) --> 8,
(31,6) --> 19,
(31,7) --> 53,
(31,8) --> 88,
(31,9) --> 85,
(31,10) --> 86,
(31,11) --> 108,
(31,12) --> 8,
(31,13) --> 106,
(31,14) --> 46,
(31,15) --> 89,
(31,16) --> 65,
(31,17) --> 50,
(31,18) --> 29,
(31,19) --> 50,
(31,20) --> 96,
(31,21) --> 99,
(31,22) --> 28,
(31,23) --> 10,
(31,24) --> 98,
(31,25) --> 55,
(31,26) --> 93,
(31,27) --> 78,
(31,28) --> 77,
(31,29) --> 94,
(31,30) --> 102,
(31,31) --> 0,
(31,32) --> 32,
(31,33) --> 98,
(31,34) --> 75,
(31,35) --> 29,
(31,36) --> 44,
(31,37) --> 55,
(31,38) --> 46,
(31,39) --> 91,
(31,40) --> 48,
(31,41) --> 72,
(31,42) --> 100,
(31,43) --> 3,
(31,44) --> 27,
(31,45) --> 65,
(31,46) --> 113,
(31,47) --> 68,
(32,0) --> 38,
(32,1) --> 32,
(32,2) --> 70,
(32,3) --> 42,
(32,4) --> 71,
(32,5) --> 37,
(32,6) --> 24,
(32,7) --> 21,
(32,8) --> 55,
(32,9) --> 54,
(32,10) --> 63,
(32,11) --> 76,
(32,12) --> 39,
(32,13) --> 75,
(32,14) --> 40,
(32,15) --> 57,
(32,16) --> 44,
(32,17) --> 42,
(32,18) --> 25,
(32,19) --> 26,
(32,20) --> 64,
(32,21) --> 70,
(32,22) --> 16,
(32,23) --> 27,
(32,24) --> 67,
(32,25) --> 35,
(32,26) --> 61,
(32,27) --> 46,
(32,28) --> 49,
(32,29) --> 64,
(32,30) --> 73,
(32,31) --> 32,
(32,32) --> 0,
(32,33) --> 71,
(32,34) --> 44,
(32,35) --> 19,
(32,36) --> 12,
(32,37) --> 26,
(32,38) --> 23,
(32,39) --> 59,
(32,40) --> 19,
(32,41) --> 64,
(32,42) --> 68,
(32,43) --> 30,
(32,44) --> 24,
(32,45) --> 34,
(32,46) --> 84,
(32,47) --> 48,
(33,0) --> 72,
(33,1) --> 102,
(33,2) --> 24,
(33,3) --> 75,
(33,4) --> 33,
(33,5) --> 105,
(33,6) --> 96,
(33,7) --> 54,
(33,8) --> 52,
(33,9) --> 31,
(33,10) --> 15,
(33,11) --> 47,
(33,12) --> 102,
(33,13) --> 28,
(33,14) --> 61,
(33,15) --> 46,
(33,16) --> 35,
(33,17) --> 57,
(33,18) --> 71,
(33,19) --> 82,
(33,20) --> 66,
(33,21) --> 16,
(33,22) --> 87,
(33,23) --> 88,
(33,24) --> 28,
(33,25) --> 92,
(33,26) --> 60,
(33,27) --> 45,
(33,28) --> 22,
(33,29) --> 18,
(33,30) --> 17,
(33,31) --> 98,
(33,32) --> 71,
(33,33) --> 0,
(33,34) --> 32,
(33,35) --> 69,
(33,36) --> 63,
(33,37) --> 72,
(33,38) --> 82,
(33,39) --> 59,
(33,40) --> 52,
(33,41) --> 53,
(33,42) --> 41,
(33,43) --> 95,
(33,44) --> 73,
(33,45) --> 42,
(33,46) --> 24,
(33,47) --> 34,
(34,0) --> 60,
(34,1) --> 76,
(34,2) --> 44,
(34,3) --> 43,
(34,4) --> 28,
(34,5) --> 81,
(34,6) --> 68,
(34,7) --> 24,
(34,8) --> 27,
(34,9) --> 11,
(34,10) --> 32,
(34,11) --> 37,
(34,12) --> 81,
(34,13) --> 31,
(34,14) --> 52,
(34,15) --> 23,
(34,16) --> 31,
(34,17) --> 50,
(34,18) --> 54,
(34,19) --> 50,
(34,20) --> 41,
(34,21) --> 26,
(34,22) --> 58,
(34,23) --> 67,
(34,24) --> 23,
(34,25) --> 60,
(34,26) --> 36,
(34,27) --> 16,
(34,28) --> 13,
(34,29) --> 20,
(34,30) --> 29,
(34,31) --> 75,
(34,32) --> 44,
(34,33) --> 32,
(34,34) --> 0,
(34,35) --> 49,
(34,36) --> 34,
(34,37) --> 40,
(34,38) --> 51,
(34,39) --> 34,
(34,40) --> 27,
(34,41) --> 59,
(34,42) --> 29,
(34,43) --> 72,
(34,44) --> 55,
(34,45) --> 11,
(34,46) --> 39,
(34,47) --> 34,
(35,0) --> 19,
(35,1) --> 36,
(35,2) --> 62,
(35,3) --> 60,
(35,4) --> 77,
(35,5) --> 36,
(35,6) --> 33,
(35,7) --> 32,
(35,8) --> 67,
(35,9) --> 60,
(35,10) --> 57,
(35,11) --> 85,
(35,12) --> 33,
(35,13) --> 80,
(35,14) --> 22,
(35,15) --> 67,
(35,16) --> 36,
(35,17) --> 25,
(35,18) --> 6,
(35,19) --> 45,
(35,20) --> 78,
(35,21) --> 72,
(35,22) --> 31,
(35,23) --> 19,
(35,24) --> 72,
(35,25) --> 54,
(35,26) --> 75,
(35,27) --> 56,
(35,28) --> 50,
(35,29) --> 67,
(35,30) --> 75,
(35,31) --> 29,
(35,32) --> 19,
(35,33) --> 69,
(35,34) --> 49,
(35,35) --> 0,
(35,36) --> 26,
(35,37) --> 44,
(35,38) --> 42,
(35,39) --> 73,
(35,40) --> 23,
(35,41) --> 48,
(35,42) --> 77,
(35,43) --> 26,
(35,44) --> 6,
(35,45) --> 41,
(35,46) --> 86,
(35,47) --> 39,
(36,0) --> 44,
(36,1) --> 43,
(36,2) --> 65,
(36,3) --> 34,
(36,4) --> 59,
(36,5) --> 48,
(36,6) --> 34,
(36,7) --> 10,
(36,8) --> 44,
(36,9) --> 43,
(36,10) --> 56,
(36,11) --> 64,
(36,12) --> 51,
(36,13) --> 64,
(36,14) --> 43,
(36,15) --> 45,
(36,16) --> 40,
(36,17) --> 44,
(36,18) --> 33,
(36,19) --> 23,
(36,20) --> 53,
(36,21) --> 60,
(36,22) --> 24,
(36,23) --> 38,
(36,24) --> 56,
(36,25) --> 34,
(36,26) --> 50,
(36,27) --> 34,
(36,28) --> 41,
(36,29) --> 54,
(36,30) --> 63,
(36,31) --> 44,
(36,32) --> 12,
(36,33) --> 63,
(36,34) --> 34,
(36,35) --> 26,
(36,36) --> 0,
(36,37) --> 19,
(36,38) --> 22,
(36,39) --> 48,
(36,40) --> 13,
(36,41) --> 64,
(36,42) --> 57,
(36,43) --> 41,
(36,44) --> 32,
(36,45) --> 23,
(36,46) --> 73,
(36,47) --> 45,
(37,0) --> 63,
(37,1) --> 49,
(37,2) --> 79,
(37,3) --> 16,
(37,4) --> 59,
(37,5) --> 58,
(37,6) --> 40,
(37,7) --> 21,
(37,8) --> 37,
(37,9) --> 45,
(37,10) --> 68,
(37,11) --> 60,
(37,12) --> 63,
(37,13) --> 66,
(37,14) --> 62,
(37,15) --> 40,
(37,16) --> 57,
(37,17) --> 63,
(37,18) --> 51,
(37,19) --> 11,
(37,20) --> 41,
(37,21) --> 65,
(37,22) --> 29,
(37,23) --> 52,
(37,24) --> 57,
(37,25) --> 20,
(37,26) --> 40,
(37,27) --> 32,
(37,28) --> 51,
(37,29) --> 59,
(37,30) --> 67,
(37,31) --> 55,
(37,32) --> 26,
(37,33) --> 72,
(37,34) --> 40,
(37,35) --> 44,
(37,36) --> 19,
(37,37) --> 0,
(37,38) --> 13,
(37,39) --> 38,
(37,40) --> 30,
(37,41) --> 82,
(37,42) --> 54,
(37,43) --> 53,
(37,44) --> 50,
(37,45) --> 30,
(37,46) --> 77,
(37,47) --> 61,
(38,0) --> 60,
(38,1) --> 38,
(38,2) --> 86,
(38,3) --> 26,
(38,4) --> 72,
(38,5) --> 47,
(38,6) --> 29,
(38,7) --> 28,
(38,8) --> 50,
(38,9) --> 57,
(38,10) --> 77,
(38,11) --> 73,
(38,12) --> 54,
(38,13) --> 78,
(38,14) --> 62,
(38,15) --> 53,
(38,16) --> 62,
(38,17) --> 64,
(38,18) --> 48,
(38,19) --> 4,
(38,20) --> 53,
(38,21) --> 76,
(38,22) --> 18,
(38,23) --> 45,
(38,24) --> 69,
(38,25) --> 13,
(38,26) --> 52,
(38,27) --> 45,
(38,28) --> 60,
(38,29) --> 70,
(38,30) --> 79,
(38,31) --> 46,
(38,32) --> 23,
(38,33) --> 82,
(38,34) --> 51,
(38,35) --> 42,
(38,36) --> 22,
(38,37) --> 13,
(38,38) --> 0,
(38,39) --> 51,
(38,40) --> 34,
(38,41) --> 85,
(38,42) --> 67,
(38,43) --> 44,
(38,44) --> 47,
(38,45) --> 40,
(38,46) --> 89,
(38,47) --> 66,
(39,0) --> 88,
(39,1) --> 87,
(39,2) --> 77,
(39,3) --> 28,
(39,4) --> 31,
(39,5) --> 95,
(39,6) --> 78,
(39,7) --> 40,
(39,8) --> 7,
(39,9) --> 28,
(39,10) --> 64,
(39,11) --> 25,
(39,12) --> 99,
(39,13) --> 39,
(39,14) --> 83,
(39,15) --> 13,
(39,16) --> 65,
(39,17) --> 81,
(39,18) --> 78,
(39,19) --> 48,
(39,20) --> 7,
(39,21) --> 45,
(39,22) --> 67,
(39,23) --> 86,
(39,24) --> 32,
(39,25) --> 53,
(39,26) --> 2,
(39,27) --> 19,
(39,28) --> 46,
(39,29) --> 40,
(39,30) --> 46,
(39,31) --> 91,
(39,32) --> 59,
(39,33) --> 59,
(39,34) --> 34,
(39,35) --> 73,
(39,36) --> 48,
(39,37) --> 38,
(39,38) --> 51,
(39,39) --> 0,
(39,40) --> 50,
(39,41) --> 93,
(39,42) --> 22,
(39,43) --> 89,
(39,44) --> 79,
(39,45) --> 35,
(39,46) --> 51,
(39,47) --> 68,
(40,0) --> 38,
(40,1) --> 50,
(40,2) --> 53,
(40,3) --> 42,
(40,4) --> 54,
(40,5) --> 54,
(40,6) --> 43,
(40,7) --> 11,
(40,8) --> 44,
(40,9) --> 37,
(40,10) --> 44,
(40,11) --> 62,
(40,12) --> 54,
(40,13) --> 58,
(40,14) --> 34,
(40,15) --> 44,
(40,16) --> 28,
(40,17) --> 34,
(40,18) --> 29,
(40,19) --> 36,
(40,20) --> 56,
(40,21) --> 52,
(40,22) --> 35,
(40,23) --> 40,
(40,24) --> 50,
(40,25) --> 47,
(40,26) --> 52,
(40,27) --> 33,
(40,28) --> 30,
(40,29) --> 46,
(40,30) --> 54,
(40,31) --> 48,
(40,32) --> 19,
(40,33) --> 52,
(40,34) --> 27,
(40,35) --> 23,
(40,36) --> 13,
(40,37) --> 30,
(40,38) --> 34,
(40,39) --> 50,
(40,40) --> 0,
(40,41) --> 52,
(40,42) --> 54,
(40,43) --> 45,
(40,44) --> 29,
(40,45) --> 18,
(40,46) --> 66,
(40,47) --> 32,
(41,0) --> 36,
(41,1) --> 83,
(41,2) --> 31,
(41,3) --> 94,
(41,4) --> 80,
(41,5) --> 80,
(41,6) --> 81,
(41,7) --> 62,
(41,8) --> 86,
(41,9) --> 68,
(41,10) --> 38,
(41,11) --> 93,
(41,12) --> 72,
(41,13) --> 78,
(41,14) --> 26,
(41,15) --> 82,
(41,16) --> 29,
(41,17) --> 23,
(41,18) --> 45,
(41,19) --> 87,
(41,20) --> 100,
(41,21) --> 66,
(41,22) --> 78,
(41,23) --> 62,
(41,24) --> 74,
(41,25) --> 98,
(41,26) --> 95,
(41,27) --> 74,
(41,28) --> 49,
(41,29) --> 64,
(41,30) --> 68,
(41,31) --> 72,
(41,32) --> 64,
(41,33) --> 53,
(41,34) --> 59,
(41,35) --> 48,
(41,36) --> 64,
(41,37) --> 82,
(41,38) --> 85,
(41,39) --> 93,
(41,40) --> 52,
(41,41) --> 0,
(41,42) --> 85,
(41,43) --> 70,
(41,44) --> 47,
(41,45) --> 60,
(41,46) --> 77,
(41,47) --> 25,
(42,0) --> 89,
(42,1) --> 99,
(42,2) --> 63,
(42,3) --> 48,
(42,4) --> 9,
(42,5) --> 105,
(42,6) --> 91,
(42,7) --> 47,
(42,8) --> 18,
(42,9) --> 18,
(42,10) --> 50,
(42,11) --> 8,
(42,12) --> 107,
(42,13) --> 17,
(42,14) --> 81,
(42,15) --> 13,
(42,16) --> 58,
(42,17) --> 78,
(42,18) --> 82,
(42,19) --> 64,
(42,20) --> 27,
(42,21) --> 25,
(42,22) --> 79,
(42,23) --> 93,
(42,24) --> 13,
(42,25) --> 72,
(42,26) --> 22,
(42,27) --> 23,
(42,28) --> 36,
(42,29) --> 23,
(42,30) --> 26,
(42,31) --> 100,
(42,32) --> 68,
(42,33) --> 41,
(42,34) --> 29,
(42,35) --> 77,
(42,36) --> 57,
(42,37) --> 54,
(42,38) --> 67,
(42,39) --> 22,
(42,40) --> 54,
(42,41) --> 85,
(42,42) --> 0,
(42,43) --> 98,
(42,44) --> 82,
(42,45) --> 36,
(42,46) --> 29,
(42,47) --> 60,
(43,0) --> 35,
(43,1) --> 14,
(43,2) --> 87,
(43,3) --> 69,
(43,4) --> 99,
(43,5) --> 10,
(43,6) --> 18,
(43,7) --> 50,
(43,8) --> 85,
(43,9) --> 82,
(43,10) --> 83,
(43,11) --> 105,
(43,12) --> 10,
(43,13) --> 103,
(43,14) --> 44,
(43,15) --> 86,
(43,16) --> 62,
(43,17) --> 48,
(43,18) --> 26,
(43,19) --> 48,
(43,20) --> 93,
(43,21) --> 97,
(43,22) --> 26,
(43,23) --> 8,
(43,24) --> 95,
(43,25) --> 53,
(43,26) --> 91,
(43,27) --> 75,
(43,28) --> 74,
(43,29) --> 91,
(43,30) --> 99,
(43,31) --> 3,
(43,32) --> 30,
(43,33) --> 95,
(43,34) --> 72,
(43,35) --> 26,
(43,36) --> 41,
(43,37) --> 53,
(43,38) --> 44,
(43,39) --> 89,
(43,40) --> 45,
(43,41) --> 70,
(43,42) --> 98,
(43,43) --> 0,
(43,44) --> 24,
(43,45) --> 62,
(43,46) --> 111,
(43,47) --> 65,
(44,0) --> 14,
(44,1) --> 36,
(44,2) --> 63,
(44,3) --> 66,
(44,4) --> 82,
(44,5) --> 35,
(44,6) --> 34,
(44,7) --> 38,
(44,8) --> 73,
(44,9) --> 65,
(44,10) --> 60,
(44,11) --> 91,
(44,12) --> 30,
(44,13) --> 85,
(44,14) --> 20,
(44,15) --> 73,
(44,16) --> 38,
(44,17) --> 24,
(44,18) --> 2,
(44,19) --> 50,
(44,20) --> 84,
(44,21) --> 77,
(44,22) --> 34,
(44,23) --> 16,
(44,24) --> 77,
(44,25) --> 59,
(44,26) --> 81,
(44,27) --> 62,
(44,28) --> 54,
(44,29) --> 71,
(44,30) --> 79,
(44,31) --> 27,
(44,32) --> 24,
(44,33) --> 73,
(44,34) --> 55,
(44,35) --> 6,
(44,36) --> 32,
(44,37) --> 50,
(44,38) --> 47,
(44,39) --> 79,
(44,40) --> 29,
(44,41) --> 47,
(44,42) --> 82,
(44,43) --> 24,
(44,44) --> 0,
(44,45) --> 47,
(44,46) --> 91,
(44,47) --> 41,
(45,0) --> 54,
(45,1) --> 66,
(45,2) --> 50,
(45,3) --> 36,
(45,4) --> 37,
(45,5) --> 71,
(45,6) --> 58,
(45,7) --> 13,
(45,8) --> 28,
(45,9) --> 20,
(45,10) --> 39,
(45,11) --> 44,
(45,12) --> 72,
(45,13) --> 41,
(45,14) --> 48,
(45,15) --> 26,
(45,16) --> 32,
(45,17) --> 47,
(45,18) --> 46,
(45,19) --> 40,
(45,20) --> 41,
(45,21) --> 37,
(45,22) --> 47,
(45,23) --> 58,
(45,24) --> 33,
(45,25) --> 50,
(45,26) --> 36,
(45,27) --> 16,
(45,28) --> 20,
(45,29) --> 30,
(45,30) --> 39,
(45,31) --> 65,
(45,32) --> 34,
(45,33) --> 42,
(45,34) --> 11,
(45,35) --> 41,
(45,36) --> 23,
(45,37) --> 30,
(45,38) --> 40,
(45,39) --> 35,
(45,40) --> 18,
(45,41) --> 60,
(45,42) --> 36,
(45,43) --> 62,
(45,44) --> 47,
(45,45) --> 0,
(45,46) --> 50,
(45,47) --> 36,
(46,0) --> 93,
(46,1) --> 115,
(46,2) --> 48,
(46,3) --> 74,
(46,4) --> 20,
(46,5) --> 120,
(46,6) --> 108,
(46,7) --> 64,
(46,8) --> 46,
(46,9) --> 32,
(46,10) --> 39,
(46,11) --> 31,
(46,12) --> 119,
(46,13) --> 12,
(46,14) --> 82,
(46,15) --> 40,
(46,16) --> 56,
(46,17) --> 79,
(46,18) --> 89,
(46,19) --> 87,
(46,20) --> 56,
(46,21) --> 14,
(46,22) --> 98,
(46,23) --> 105,
(46,24) --> 20,
(46,25) --> 96,
(46,26) --> 51,
(46,27) --> 45,
(46,28) --> 37,
(46,29) --> 20,
(46,30) --> 11,
(46,31) --> 113,
(46,32) --> 84,
(46,33) --> 24,
(46,34) --> 39,
(46,35) --> 86,
(46,36) --> 73,
(46,37) --> 77,
(46,38) --> 89,
(46,39) --> 51,
(46,40) --> 66,
(46,41) --> 77,
(46,42) --> 29,
(46,43) --> 111,
(46,44) --> 91,
(46,45) --> 50,
(46,46) --> 0,
(46,47) --> 56,
(47,0) --> 38,
(47,1) --> 75,
(47,2) --> 22,
(47,3) --> 71,
(47,4) --> 56,
(47,5) --> 75,
(47,6) --> 70,
(47,7) --> 40,
(47,8) --> 61,
(47,9) --> 43,
(47,10) --> 20,
(47,11) --> 68,
(47,12) --> 71,
(47,13) --> 55,
(47,14) --> 27,
(47,15) --> 57,
(47,16) --> 4,
(47,17) --> 23,
(47,18) --> 39,
(47,19) --> 68,
(47,20) --> 75,
(47,21) --> 44,
(47,22) --> 64,
(47,23) --> 58,
(47,24) --> 50,
(47,25) --> 79,
(47,26) --> 70,
(47,27) --> 49,
(47,28) --> 24,
(47,29) --> 40,
(47,30) --> 46,
(47,31) --> 68,
(47,32) --> 48,
(47,33) --> 34,
(47,34) --> 34,
(47,35) --> 39,
(47,36) --> 45,
(47,37) --> 61,
(47,38) --> 66,
(47,39) --> 68,
(47,40) --> 32,
(47,41) --> 25,
(47,42) --> 60,
(47,43) --> 65,
(47,44) --> 41,
(47,45) --> 36,
(47,46) --> 56,
(47,47) --> 0)
letting orderWeights be function (
1 --> 20
,
2 --> 14
,
3 --> 5
,
4 --> 11
,
5 --> 22
,
6 --> 25
,
7 --> 2
,
8 --> 18
,
9 --> 10
,
10 --> 26
,
11 --> 14
,
12 --> 22
,
13 --> 9
,
14 --> 11
,
15 --> 18
,
16 --> 24
,
17 --> 15
,
18 --> 23
,
19 --> 16
,
20 --> 14
,
21 --> 8
,
22 --> 5
,
23 --> 12
,
24 --> 8
,
25 --> 16
,
26 --> 12
,
27 --> 15
,
28 --> 9
,
29 --> 2
,
30 --> 10
,
31 --> 2
,
32 --> 3
,
33 --> 20
,
34 --> 3
,
35 --> 13
,
36 --> 25
,
37 --> 23
,
38 --> 8
,
39 --> 16
,
40 --> 9
,
41 --> 14
,
42 --> 4
,
43 --> 13
,
44 --> 7
,
45 --> 16
,
46 --> 18
,
47 --> 16
)
letting vehicleCapacity be 100
